# Solution for model p01_budget_0p370
# Objective value = 3.7000000000006306e-01
Risk 3.7000000000006306e-01
0 0
1 0
3 0.001
4 30.001
5 3.0002000000000002e+01
6 40.002
7 3.5274420879234206e+01
9 7.4546117797737665e+01
c(0,1)_Rl 0.001
c(0,1)_Ru 0
c(0,3)_Rl 0
c(0,3)_Ru 0
c(3,4)_Rl 0
c(3,4)_Ru 0
c(4,5)_Rl 0
c(4,5)_Ru 0
c(3,5)_Rl 0
c(3,5)_Ru 0
c(1,2)_l 0
c(1,2)_u 3.5273420879234209e+01
c(2,7)_Fl 0
c(2,7)_Fu 2.2030052062973571e-01
c(1,7)_Rl 0
c(1,7)_Ru 0
c(5,6)_Rl 0
c(5,6)_Ru 0
c(3,6)_Rl 0
c(3,6)_Ru 0
c(7,8)_l 0
c(7,8)_u 3.9270696918503454e+01
c(1,8)_Fl 0
c(1,8)_Fu 7.4849739685163619e-02
c(0,9)_Rl 0
c(0,9)_Ru 3.8545517797737666e+01
c(8,9)_Fl 0
c(8,9)_Fu 7.4849739685163730e-02
c(6,9)_Rl 0
c(6,9)_Ru 0
Cost 3.8546517797737664e+01
